nNurses = 58;
nHours = 31;
minHours = 7;
maxHours = 12;
maxConsec = 8;
maxPresence = 18;
demand = [23, 22, 23, 21, 16, 11, 12, 15, 19, 23, 21, 18, 18, 16, 11, 12, 11, 10, 13, 9, 12, 13, 11, 14, 16, 20, 17, 20, 21, 18, 23];
